%block lattice_cart
ang
0.0 2.5 2.5
2.5 0.0 2.5
2.5 2.5 0.0
%endblock lattice_cart

%block positions_frac
Ca 0.00 0.00 0.00
F 0.25 0.25 0.25
F 0.75 0.75 0.75
%endblock positions_frac

KPOINTS_MP_GRID 1 1 1

SYMMETRY_GENERATE

%BLOCK SPECIES_POT
Ca C19
F  C19
%ENDBLOCK SPECIES_POT
