%block lattice_cart
ang
2.863 0.000 0.000
0.000 2.863 0.000
0.000 0.000 2.863
%endblock lattice_cart

%block positions_frac
Fe 0.0 0.0 0.0 SPIN=4
Fe 0.5 0.5 0.5 SPIN=4
%endblock positions_frac

KPOINTS_MP_GRID 9 9 9

SYMMETRY_GENERATE

%BLOCK SPECIES_POT
 Fe C19 
%ENDBLOCK SPECIES_POT

